(set-option :produce-models true)
(set-logic QF_UF)
(declare-fun p15() Bool)
(declare-fun p32() Bool)
(declare-fun p21() Bool)
(declare-fun p28() Bool)
(declare-fun p7() Bool)
(declare-fun p19() Bool)
(declare-fun p2() Bool)
(declare-fun p17() Bool)
(declare-fun p38() Bool)
(declare-fun p25() Bool)
(declare-fun p35() Bool)
(declare-fun p0() Bool)
(declare-fun p5() Bool)
(declare-fun p14() Bool)
(declare-fun p4() Bool)
(declare-fun p11() Bool)
(declare-fun p10() Bool)
(declare-fun p12() Bool)
(declare-fun p26() Bool)
(declare-fun p33() Bool)
(declare-fun p39() Bool)
(declare-fun p9() Bool)
(declare-fun p27() Bool)
(declare-fun p20() Bool)
(declare-fun p1() Bool)
(declare-fun p3() Bool)
(declare-fun p36() Bool)
(declare-fun p37() Bool)
(declare-fun p8() Bool)
(declare-fun p22() Bool)
(declare-fun p31() Bool)
(declare-fun p16() Bool)
(declare-fun p23() Bool)
(declare-fun p6() Bool)
(declare-fun p29() Bool)
(declare-fun p13() Bool)
(declare-fun p18() Bool)
(declare-fun p34() Bool)
(declare-fun p24() Bool)
(declare-fun p30() Bool)
(assert
(and (or p15 p32 p21) (or (not p28) p7 p19) (or (not p2) p17 p38) (or p25 (not p35) p0) (or (not p5) (not p14) p19) (or (not p4) p11 p21) (or p15 (not p10) (not p12)) (or p26 (not p33) p14) (or (not p39) (not p11) (not p9)) (or (not p28) (not p9) (not p27)) (or p19 (not p11) (not p0)) (or p20 (not p19) p1) (or p3 p36 (not p14)) (or (not p19) (not p14) p11) (or p4 p37 (not p7)) (or p32 (not p10) p38) (or p20 p39 p37) (or (not p3) p12 (not p8)) (or p2 (not p32) p22) (or (not p28) p10 p12) (or p31 p2 (not p1)) (or (not p36) (not p19) (not p14)) (or p1 (not p4) p10) (or p2 (not p3) (not p16)) (or (not p5) (not p1) (not p23)) (or p20 (not p38) p16) (or p11 (not p20) p1) (or p9 (not p37) p8) (or (not p27) (not p22) p21) (or p38 p23 p8) (or (not p2) p26 p10) (or (not p35) p36 (not p32)) (or (not p21) p2 p1) (or (not p28) (not p6) p26) (or (not p25) (not p29) (not p23)) (or (not p26) p13 p12) (or p10 (not p9) (not p37)) (or (not p17) (not p28) (not p21)) (or p11 p39 p2) (or p16 p28 (not p1)) (or (not p18) (not p36) (not p6)) (or (not p23) p39 p32) (or (not p21) (not p28) (not p36)) (or p27 (not p28) p19) (or (not p34) p31 p21) (or (not p10) (not p27) p12) (or p31 p14 (not p17)) (or p10 (not p18) (not p36)) (or (not p8) p26 p13) (or p15 p37 p27) (or (not p31) (not p20) (not p0)) (or (not p32) (not p38) p39) (or (not p35) p20 (not p3)) (or p5 (not p27) p29) (or (not p29) p33 p17) (or p3 p31 (not p7)) (or p33 (not p2) p20) (or (not p6) (not p28) p27) (or p19 p24 p31) (or p23 (not p26) (not p7)) (or (not p36) p15 (not p16)) (or (not p34) p16 p18) (or p19 p5 p36) (or p5 (not p30) (not p24)) (or (not p0) p13 (not p37)) (or (not p0) (not p37) p5) (or (not p12) (not p8) (not p27)) (or (not p35) (not p7) (not p25)) (or (not p27) p1 (not p15)) (or (not p17) (not p6) p39) (or (not p30) p11 (not p7)) (or (not p23) (not p29) (not p31)) (or p8 p37 p19) (or (not p3) (not p33) (not p11)) (or (not p2) (not p11) p18) (or p36 p31 p2) (or p13 p6 p35) (or (not p7) p36 p10) (or (not p7) p11 (not p17)) (or p16 (not p10) p24) (or (not p15) (not p12) (not p12)) (or (not p39) p11 (not p17)) (or p38 p36 (not p21)) (or (not p8) p32 (not p1)) (or (not p8) p9 (not p27)) (or p31 (not p2) (not p4)) (or (not p30) p17 (not p28)) (or p34 p6 p39) (or p31 p34 p31) (or (not p31) p11 p3) (or p3 (not p32) p21) (or (not p38) (not p31) p17) (or p30 (not p3) (not p32)) (or p10 (not p20) (not p31)) (or (not p17) (not p3) p9) (or p9 (not p14) (not p19)) (or p26 p14 (not p30)) (or (not p6) p23 (not p32)) (or (not p29) p28 p6) (or (not p30) (not p20) (not p20)) (or p20 (not p19) p37) (or p16 (not p37) p22) (or (not p12) p8 (not p31)) (or (not p2) p6 p21) (or p37 (not p19) (not p4)) (or p11 (not p8) (not p18)) (or (not p21) (not p3) p31) (or p20 (not p9) p25) (or (not p13) p13 (not p4)) (or p13 p29 (not p33)) (or p24 p25 p36) (or (not p37) (not p29) p6) (or p5 p19 (not p30)) (or (not p38) p12 p28) (or p25 p12 p6) (or p34 p11 p16) (or (not p11) p22 p22) (or (not p14) (not p37) (not p31)) (or (not p24) p26 (not p16)) (or p12 p13 (not p37)) (or p11 (not p21) (not p4)) (or p33 p15 p11) (or (not p39) p39 (not p15)) (or p17 (not p16) (not p9)) (or (not p5) (not p4) (not p2)) (or (not p34) (not p30) p10) (or p38 p16 (not p31)) (or (not p11) (not p24) (not p39)) (or (not p33) (not p17) (not p8)) (or p25 (not p24) (not p7)) (or (not p26) p16 (not p29)) (or (not p9) p32 p9) (or p8 p25 p35) (or (not p2) (not p14) p7) (or (not p32) p35 (not p6)) (or p38 (not p20) p13) (or p5 p9 (not p4)) (or p20 (not p19) p24) (or (not p33) (not p16) (not p22)) (or p5 p21 (not p30)) (or (not p1) (not p0) p21) (or (not p9) p19 p28) (or p24 (not p36) (not p36)) (or (not p14) (not p32) p10) (or (not p20) p0 (not p15)) (or (not p25) p18 p33) (or (not p30) (not p9) p2) (or (not p9) (not p4) (not p38)) (or p16 p5 (not p7)) (or p38 p22 (not p9)) (or (not p5) (not p14) (not p17)) (or p5 (not p38) p35) (or p7 (not p6) p15) (or p27 p3 (not p17)) (or p27 (not p9) (not p18)) (or (not p37) (not p26) p36) (or p29 (not p8) p1) (or (not p22) (not p18) p8) (or (not p14) (not p0) (not p17)) (or p14 p32 p23) (or p8 (not p1) (not p6)) (or (not p30) (not p22) p14) (or (not p37) (not p5) (not p36)) (or p0 (not p0) p12) (or p36 p1 (not p22)) (or p11 (not p27) (not p29)) (or (not p15) p7 p17) (or (not p31) p11 (not p21)) (or (not p21) p20 p0) (or (not p0) (not p12) (not p0)) (or (not p12) p14 p12))
)
(check-sat)
(get-model)
